c Generated encoding file
p cnf 393 540
O(1,1) 0
O(2,2) 0
O(3,3) 0
O(4,4) 0
O(5,5) 0
-O(2,3) -O(3,1) O(2,1) 0
-O(2,4) -O(4,1) O(2,1) 0
-O(2,5) -O(5,1) O(2,1) 0
-O(3,2) -O(2,1) O(3,1) 0
-O(3,4) -O(4,1) O(3,1) 0
-O(3,5) -O(5,1) O(3,1) 0
-O(4,2) -O(2,1) O(4,1) 0
-O(4,3) -O(3,1) O(4,1) 0
-O(4,5) -O(5,1) O(4,1) 0
-O(5,2) -O(2,1) O(5,1) 0
-O(5,3) -O(3,1) O(5,1) 0
-O(5,4) -O(4,1) O(5,1) 0
-O(1,3) -O(3,2) O(1,2) 0
-O(1,4) -O(4,2) O(1,2) 0
-O(1,5) -O(5,2) O(1,2) 0
-O(3,1) -O(1,2) O(3,2) 0
-O(3,4) -O(4,2) O(3,2) 0
-O(3,5) -O(5,2) O(3,2) 0
-O(4,1) -O(1,2) O(4,2) 0
-O(4,3) -O(3,2) O(4,2) 0
-O(4,5) -O(5,2) O(4,2) 0
-O(5,1) -O(1,2) O(5,2) 0
-O(5,3) -O(3,2) O(5,2) 0
-O(5,4) -O(4,2) O(5,2) 0
-O(1,2) -O(2,3) O(1,3) 0
-O(1,4) -O(4,3) O(1,3) 0
-O(1,5) -O(5,3) O(1,3) 0
-O(2,1) -O(1,3) O(2,3) 0
-O(2,4) -O(4,3) O(2,3) 0
-O(2,5) -O(5,3) O(2,3) 0
-O(4,1) -O(1,3) O(4,3) 0
-O(4,2) -O(2,3) O(4,3) 0
-O(4,5) -O(5,3) O(4,3) 0
-O(5,1) -O(1,3) O(5,3) 0
-O(5,2) -O(2,3) O(5,3) 0
-O(5,4) -O(4,3) O(5,3) 0
-O(1,2) -O(2,4) O(1,4) 0
-O(1,3) -O(3,4) O(1,4) 0
-O(1,5) -O(5,4) O(1,4) 0
-O(2,1) -O(1,4) O(2,4) 0
-O(2,3) -O(3,4) O(2,4) 0
-O(2,5) -O(5,4) O(2,4) 0
-O(3,1) -O(1,4) O(3,4) 0
-O(3,2) -O(2,4) O(3,4) 0
-O(3,5) -O(5,4) O(3,4) 0
-O(5,1) -O(1,4) O(5,4) 0
-O(5,2) -O(2,4) O(5,4) 0
-O(5,3) -O(3,4) O(5,4) 0
-O(1,2) -O(2,5) O(1,5) 0
-O(1,3) -O(3,5) O(1,5) 0
-O(1,4) -O(4,5) O(1,5) 0
-O(2,1) -O(1,5) O(2,5) 0
-O(2,3) -O(3,5) O(2,5) 0
-O(2,4) -O(4,5) O(2,5) 0
-O(3,1) -O(1,5) O(3,5) 0
-O(3,2) -O(2,5) O(3,5) 0
-O(3,4) -O(4,5) O(3,5) 0
-O(4,1) -O(1,5) O(4,5) 0
-O(4,2) -O(2,5) O(4,5) 0
-O(4,3) -O(3,5) O(4,5) 0
O(1,2) O(2,1) 0
-O(1,2) -O(2,1) 0
O(1,3) O(3,1) 0
-O(1,3) -O(3,1) 0
O(1,4) O(4,1) 0
-O(1,4) -O(4,1) 0
O(1,5) O(5,1) 0
-O(1,5) -O(5,1) 0
O(2,3) O(3,2) 0
-O(2,3) -O(3,2) 0
O(2,4) O(4,2) 0
-O(2,4) -O(4,2) 0
O(2,5) O(5,2) 0
-O(2,5) -O(5,2) 0
O(3,4) O(4,3) 0
-O(3,4) -O(4,3) 0
O(3,5) O(5,3) 0
-O(3,5) -O(5,3) 0
O(4,5) O(5,4) 0
-O(4,5) -O(5,4) 0
C(1,1,0) 0
--C110 -O11 -O12 C121 0
--C111 -O11 -O12 C122 0
C(1,2,0) 0
C(1,3,0) 0
-C130 -O21 -O13 C141 0
-C130 -O12 -O31 C141 0
-C131 -O21 -O13 C142 0
-C131 -O12 -O31 C142 0
-C132 -O21 -O13 C143 0
-C132 -O12 -O31 C143 0
-C133 -O21 -O13 C144 0
-C133 -O12 -O31 C144 0
C(1,4,0) 0
-C140 -O21 -O14 C151 0
-C140 -O12 -O41 C151 0
-C141 -O21 -O14 C152 0
-C141 -O12 -O41 C152 0
-C142 -O21 -O14 C153 0
-C142 -O12 -O41 C153 0
-C143 -O21 -O14 C154 0
-C143 -O12 -O41 C154 0
-C144 -O21 -O14 C155 0
-C144 -O12 -O41 C155 0
C(1,5,0) 0
-C150 -O31 -O12 C161 0
-C150 -O13 -O21 C161 0
-C151 -O31 -O12 C162 0
-C151 -O13 -O21 C162 0
-C152 -O31 -O12 C163 0
-C152 -O13 -O21 C163 0
-C153 -O31 -O12 C164 0
-C153 -O13 -O21 C164 0
-C154 -O31 -O12 C165 0
-C154 -O13 -O21 C165 0
-C155 -O31 -O12 C166 0
-C155 -O13 -O21 C166 0
C(1,6,0) 0
-C160 -O31 -O14 C171 0
-C160 -O13 -O41 C171 0
-C161 -O31 -O14 C172 0
-C161 -O13 -O41 C172 0
-C162 -O31 -O14 C173 0
-C162 -O13 -O41 C173 0
-C163 -O31 -O14 C174 0
-C163 -O13 -O41 C174 0
-C164 -O31 -O14 C175 0
-C164 -O13 -O41 C175 0
-C165 -O31 -O14 C176 0
-C165 -O13 -O41 C176 0
-C166 -O31 -O14 C177 0
-C166 -O13 -O41 C177 0
C(1,7,0) 0
-C170 -O41 -O12 C181 0
-C170 -O14 -O21 C181 0
-C171 -O41 -O12 C182 0
-C171 -O14 -O21 C182 0
-C172 -O41 -O12 C183 0
-C172 -O14 -O21 C183 0
-C173 -O41 -O12 C184 0
-C173 -O14 -O21 C184 0
-C174 -O41 -O12 C185 0
-C174 -O14 -O21 C185 0
-C175 -O41 -O12 C186 0
-C175 -O14 -O21 C186 0
-C176 -O41 -O12 C187 0
-C176 -O14 -O21 C187 0
-C177 -O41 -O12 C188 0
-C177 -O14 -O21 C188 0
C(1,8,0) 0
-C180 -O41 -O13 C191 0
-C180 -O14 -O31 C191 0
-C181 -O41 -O13 C192 0
-C181 -O14 -O31 C192 0
-C182 -O41 -O13 C193 0
-C182 -O14 -O31 C193 0
-C183 -O41 -O13 C194 0
-C183 -O14 -O31 C194 0
-C184 -O41 -O13 C195 0
-C184 -O14 -O31 C195 0
-C185 -O41 -O13 C196 0
-C185 -O14 -O31 C196 0
-C186 -O41 -O13 C197 0
-C186 -O14 -O31 C197 0
-C187 -O41 -O13 C198 0
-C187 -O14 -O31 C198 0
-C188 -O41 -O13 C199 0
-C188 -O14 -O31 C199 0
C(1,9,0) 0
-C190 -O41 -O15 C1101 0
-C190 -O14 -O51 C1101 0
-C191 -O41 -O15 C1102 0
-C191 -O14 -O51 C1102 0
-C192 -O41 -O15 C1103 0
-C192 -O14 -O51 C1103 0
-C193 -O41 -O15 C1104 0
-C193 -O14 -O51 C1104 0
-C194 -O41 -O15 C1105 0
-C194 -O14 -O51 C1105 0
-C195 -O41 -O15 C1106 0
-C195 -O14 -O51 C1106 0
-C196 -O41 -O15 C1107 0
-C196 -O14 -O51 C1107 0
-C197 -O41 -O15 C1108 0
-C197 -O14 -O51 C1108 0
-C198 -O41 -O15 C1109 0
-C198 -O14 -O51 C1109 0
-C199 -O41 -O15 C11010 0
-C199 -O14 -O51 C11010 0
C(1,10,0) 0
-C1100 -O51 -O14 C1111 0
-C1100 -O15 -O41 C1111 0
-C1101 -O51 -O14 C1112 0
-C1101 -O15 -O41 C1112 0
-C1102 -O51 -O14 C1113 0
-C1102 -O15 -O41 C1113 0
-C1103 -O51 -O14 C1114 0
-C1103 -O15 -O41 C1114 0
-C1104 -O51 -O14 C1115 0
-C1104 -O15 -O41 C1115 0
-C1105 -O51 -O14 C1116 0
-C1105 -O15 -O41 C1116 0
-C1106 -O51 -O14 C1117 0
-C1106 -O15 -O41 C1117 0
-C1107 -O51 -O14 C1118 0
-C1107 -O15 -O41 C1118 0
-C1108 -O51 -O14 C1119 0
-C1108 -O15 -O41 C1119 0
-C1109 -O51 -O14 C11110 0
-C1109 -O15 -O41 C11110 0
-C11010 -O51 -O14 C11111 0
-C11010 -O15 -O41 C11111 0
C(2,1,0) 0
C(2,2,0) 0
--C220 -O22 -O21 C231 0
--C221 -O22 -O21 C232 0
--C222 -O22 -O21 C233 0
C(2,3,0) 0
--C230 -O22 -O23 C241 0
--C231 -O22 -O23 C242 0
--C232 -O22 -O23 C243 0
--C233 -O22 -O23 C244 0
C(2,4,0) 0
--C240 -O22 -O24 C251 0
--C241 -O22 -O24 C252 0
--C242 -O22 -O24 C253 0
--C243 -O22 -O24 C254 0
--C244 -O22 -O24 C255 0
C(2,5,0) 0
C(2,6,0) 0
-C260 -O32 -O24 C271 0
-C260 -O23 -O42 C271 0
-C261 -O32 -O24 C272 0
-C261 -O23 -O42 C272 0
-C262 -O32 -O24 C273 0
-C262 -O23 -O42 C273 0
-C263 -O32 -O24 C274 0
-C263 -O23 -O42 C274 0
-C264 -O32 -O24 C275 0
-C264 -O23 -O42 C275 0
-C265 -O32 -O24 C276 0
-C265 -O23 -O42 C276 0
-C266 -O32 -O24 C277 0
-C266 -O23 -O42 C277 0
C(2,7,0) 0
C(2,8,0) 0
-C280 -O42 -O23 C291 0
-C280 -O24 -O32 C291 0
-C281 -O42 -O23 C292 0
-C281 -O24 -O32 C292 0
-C282 -O42 -O23 C293 0
-C282 -O24 -O32 C293 0
-C283 -O42 -O23 C294 0
-C283 -O24 -O32 C294 0
-C284 -O42 -O23 C295 0
-C284 -O24 -O32 C295 0
-C285 -O42 -O23 C296 0
-C285 -O24 -O32 C296 0
-C286 -O42 -O23 C297 0
-C286 -O24 -O32 C297 0
-C287 -O42 -O23 C298 0
-C287 -O24 -O32 C298 0
-C288 -O42 -O23 C299 0
-C288 -O24 -O32 C299 0
C(2,9,0) 0
-C290 -O42 -O25 C2101 0
-C290 -O24 -O52 C2101 0
-C291 -O42 -O25 C2102 0
-C291 -O24 -O52 C2102 0
-C292 -O42 -O25 C2103 0
-C292 -O24 -O52 C2103 0
-C293 -O42 -O25 C2104 0
-C293 -O24 -O52 C2104 0
-C294 -O42 -O25 C2105 0
-C294 -O24 -O52 C2105 0
-C295 -O42 -O25 C2106 0
-C295 -O24 -O52 C2106 0
-C296 -O42 -O25 C2107 0
-C296 -O24 -O52 C2107 0
-C297 -O42 -O25 C2108 0
-C297 -O24 -O52 C2108 0
-C298 -O42 -O25 C2109 0
-C298 -O24 -O52 C2109 0
-C299 -O42 -O25 C21010 0
-C299 -O24 -O52 C21010 0
C(2,10,0) 0
-C2100 -O52 -O24 C2111 0
-C2100 -O25 -O42 C2111 0
-C2101 -O52 -O24 C2112 0
-C2101 -O25 -O42 C2112 0
-C2102 -O52 -O24 C2113 0
-C2102 -O25 -O42 C2113 0
-C2103 -O52 -O24 C2114 0
-C2103 -O25 -O42 C2114 0
-C2104 -O52 -O24 C2115 0
-C2104 -O25 -O42 C2115 0
-C2105 -O52 -O24 C2116 0
-C2105 -O25 -O42 C2116 0
-C2106 -O52 -O24 C2117 0
-C2106 -O25 -O42 C2117 0
-C2107 -O52 -O24 C2118 0
-C2107 -O25 -O42 C2118 0
-C2108 -O52 -O24 C2119 0
-C2108 -O25 -O42 C2119 0
-C2109 -O52 -O24 C21110 0
-C2109 -O25 -O42 C21110 0
-C21010 -O52 -O24 C21111 0
-C21010 -O25 -O42 C21111 0
C(3,1,0) 0
-C310 -O13 -O32 C321 0
-C310 -O31 -O23 C321 0
-C311 -O13 -O32 C322 0
-C311 -O31 -O23 C322 0
C(3,2,0) 0
-C320 -O23 -O31 C331 0
-C320 -O32 -O13 C331 0
-C321 -O23 -O31 C332 0
-C321 -O32 -O13 C332 0
-C322 -O23 -O31 C333 0
-C322 -O32 -O13 C333 0
C(3,3,0) 0
C(3,4,0) 0
-C340 -O23 -O34 C351 0
-C340 -O32 -O43 C351 0
-C341 -O23 -O34 C352 0
-C341 -O32 -O43 C352 0
-C342 -O23 -O34 C353 0
-C342 -O32 -O43 C353 0
-C343 -O23 -O34 C354 0
-C343 -O32 -O43 C354 0
-C344 -O23 -O34 C355 0
-C344 -O32 -O43 C355 0
C(3,5,0) 0
--C350 -O33 -O32 C361 0
--C351 -O33 -O32 C362 0
--C352 -O33 -O32 C363 0
--C353 -O33 -O32 C364 0
--C354 -O33 -O32 C365 0
--C355 -O33 -O32 C366 0
C(3,6,0) 0
--C360 -O33 -O34 C371 0
--C361 -O33 -O34 C372 0
--C362 -O33 -O34 C373 0
--C363 -O33 -O34 C374 0
--C364 -O33 -O34 C375 0
--C365 -O33 -O34 C376 0
--C366 -O33 -O34 C377 0
C(3,7,0) 0
-C370 -O43 -O32 C381 0
-C370 -O34 -O23 C381 0
-C371 -O43 -O32 C382 0
-C371 -O34 -O23 C382 0
-C372 -O43 -O32 C383 0
-C372 -O34 -O23 C383 0
-C373 -O43 -O32 C384 0
-C373 -O34 -O23 C384 0
-C374 -O43 -O32 C385 0
-C374 -O34 -O23 C385 0
-C375 -O43 -O32 C386 0
-C375 -O34 -O23 C386 0
-C376 -O43 -O32 C387 0
-C376 -O34 -O23 C387 0
-C377 -O43 -O32 C388 0
-C377 -O34 -O23 C388 0
C(3,8,0) 0
C(3,9,0) 0
-C390 -O43 -O35 C3101 0
-C390 -O34 -O53 C3101 0
-C391 -O43 -O35 C3102 0
-C391 -O34 -O53 C3102 0
-C392 -O43 -O35 C3103 0
-C392 -O34 -O53 C3103 0
-C393 -O43 -O35 C3104 0
-C393 -O34 -O53 C3104 0
-C394 -O43 -O35 C3105 0
-C394 -O34 -O53 C3105 0
-C395 -O43 -O35 C3106 0
-C395 -O34 -O53 C3106 0
-C396 -O43 -O35 C3107 0
-C396 -O34 -O53 C3107 0
-C397 -O43 -O35 C3108 0
-C397 -O34 -O53 C3108 0
-C398 -O43 -O35 C3109 0
-C398 -O34 -O53 C3109 0
-C399 -O43 -O35 C31010 0
-C399 -O34 -O53 C31010 0
C(3,10,0) 0
-C3100 -O53 -O34 C3111 0
-C3100 -O35 -O43 C3111 0
-C3101 -O53 -O34 C3112 0
-C3101 -O35 -O43 C3112 0
-C3102 -O53 -O34 C3113 0
-C3102 -O35 -O43 C3113 0
-C3103 -O53 -O34 C3114 0
-C3103 -O35 -O43 C3114 0
-C3104 -O53 -O34 C3115 0
-C3104 -O35 -O43 C3115 0
-C3105 -O53 -O34 C3116 0
-C3105 -O35 -O43 C3116 0
-C3106 -O53 -O34 C3117 0
-C3106 -O35 -O43 C3117 0
-C3107 -O53 -O34 C3118 0
-C3107 -O35 -O43 C3118 0
-C3108 -O53 -O34 C3119 0
-C3108 -O35 -O43 C3119 0
-C3109 -O53 -O34 C31110 0
-C3109 -O35 -O43 C31110 0
-C31010 -O53 -O34 C31111 0
-C31010 -O35 -O43 C31111 0
C(4,1,0) 0
-C410 -O14 -O42 C421 0
-C410 -O41 -O24 C421 0
-C411 -O14 -O42 C422 0
-C411 -O41 -O24 C422 0
C(4,2,0) 0
-C420 -O24 -O41 C431 0
-C420 -O42 -O14 C431 0
-C421 -O24 -O41 C432 0
-C421 -O42 -O14 C432 0
-C422 -O24 -O41 C433 0
-C422 -O42 -O14 C433 0
C(4,3,0) 0
-C430 -O24 -O43 C441 0
-C430 -O42 -O34 C441 0
-C431 -O24 -O43 C442 0
-C431 -O42 -O34 C442 0
-C432 -O24 -O43 C443 0
-C432 -O42 -O34 C443 0
-C433 -O24 -O43 C444 0
-C433 -O42 -O34 C444 0
C(4,4,0) 0
C(4,5,0) 0
-C450 -O34 -O42 C461 0
-C450 -O43 -O24 C461 0
-C451 -O34 -O42 C462 0
-C451 -O43 -O24 C462 0
-C452 -O34 -O42 C463 0
-C452 -O43 -O24 C463 0
-C453 -O34 -O42 C464 0
-C453 -O43 -O24 C464 0
-C454 -O34 -O42 C465 0
-C454 -O43 -O24 C465 0
-C455 -O34 -O42 C466 0
-C455 -O43 -O24 C466 0
C(4,6,0) 0
C(4,7,0) 0
--C470 -O44 -O42 C481 0
--C471 -O44 -O42 C482 0
--C472 -O44 -O42 C483 0
--C473 -O44 -O42 C484 0
--C474 -O44 -O42 C485 0
--C475 -O44 -O42 C486 0
--C476 -O44 -O42 C487 0
--C477 -O44 -O42 C488 0
C(4,8,0) 0
--C480 -O44 -O43 C491 0
--C481 -O44 -O43 C492 0
--C482 -O44 -O43 C493 0
--C483 -O44 -O43 C494 0
--C484 -O44 -O43 C495 0
--C485 -O44 -O43 C496 0
--C486 -O44 -O43 C497 0
--C487 -O44 -O43 C498 0
--C488 -O44 -O43 C499 0
C(4,9,0) 0
--C490 -O44 -O45 C4101 0
--C491 -O44 -O45 C4102 0
--C492 -O44 -O45 C4103 0
--C493 -O44 -O45 C4104 0
--C494 -O44 -O45 C4105 0
--C495 -O44 -O45 C4106 0
--C496 -O44 -O45 C4107 0
--C497 -O44 -O45 C4108 0
--C498 -O44 -O45 C4109 0
--C499 -O44 -O45 C41010 0
C(4,10,0) 0
C(5,1,0) 0
-C510 -O15 -O52 C521 0
-C510 -O51 -O25 C521 0
-C511 -O15 -O52 C522 0
-C511 -O51 -O25 C522 0
C(5,2,0) 0
-C520 -O25 -O51 C531 0
-C520 -O52 -O15 C531 0
-C521 -O25 -O51 C532 0
-C521 -O52 -O15 C532 0
-C522 -O25 -O51 C533 0
-C522 -O52 -O15 C533 0
C(5,3,0) 0
-C530 -O25 -O53 C541 0
-C530 -O52 -O35 C541 0
-C531 -O25 -O53 C542 0
-C531 -O52 -O35 C542 0
-C532 -O25 -O53 C543 0
-C532 -O52 -O35 C543 0
-C533 -O25 -O53 C544 0
-C533 -O52 -O35 C544 0
C(5,4,0) 0
-C540 -O25 -O54 C551 0
-C540 -O52 -O45 C551 0
-C541 -O25 -O54 C552 0
-C541 -O52 -O45 C552 0
-C542 -O25 -O54 C553 0
-C542 -O52 -O45 C553 0
-C543 -O25 -O54 C554 0
-C543 -O52 -O45 C554 0
-C544 -O25 -O54 C555 0
-C544 -O52 -O45 C555 0
C(5,5,0) 0
-C550 -O35 -O52 C561 0
-C550 -O53 -O25 C561 0
-C551 -O35 -O52 C562 0
-C551 -O53 -O25 C562 0
-C552 -O35 -O52 C563 0
-C552 -O53 -O25 C563 0
-C553 -O35 -O52 C564 0
-C553 -O53 -O25 C564 0
-C554 -O35 -O52 C565 0
-C554 -O53 -O25 C565 0
-C555 -O35 -O52 C566 0
-C555 -O53 -O25 C566 0
C(5,6,0) 0
-C560 -O35 -O54 C571 0
-C560 -O53 -O45 C571 0
-C561 -O35 -O54 C572 0
-C561 -O53 -O45 C572 0
-C562 -O35 -O54 C573 0
-C562 -O53 -O45 C573 0
-C563 -O35 -O54 C574 0
-C563 -O53 -O45 C574 0
-C564 -O35 -O54 C575 0
-C564 -O53 -O45 C575 0
-C565 -O35 -O54 C576 0
-C565 -O53 -O45 C576 0
-C566 -O35 -O54 C577 0
-C566 -O53 -O45 C577 0
C(5,7,0) 0
-C570 -O45 -O52 C581 0
-C570 -O54 -O25 C581 0
-C571 -O45 -O52 C582 0
-C571 -O54 -O25 C582 0
-C572 -O45 -O52 C583 0
-C572 -O54 -O25 C583 0
-C573 -O45 -O52 C584 0
-C573 -O54 -O25 C584 0
-C574 -O45 -O52 C585 0
-C574 -O54 -O25 C585 0
-C575 -O45 -O52 C586 0
-C575 -O54 -O25 C586 0
-C576 -O45 -O52 C587 0
-C576 -O54 -O25 C587 0
-C577 -O45 -O52 C588 0
-C577 -O54 -O25 C588 0
C(5,8,0) 0
-C580 -O45 -O53 C591 0
-C580 -O54 -O35 C591 0
-C581 -O45 -O53 C592 0
-C581 -O54 -O35 C592 0
-C582 -O45 -O53 C593 0
-C582 -O54 -O35 C593 0
-C583 -O45 -O53 C594 0
-C583 -O54 -O35 C594 0
-C584 -O45 -O53 C595 0
-C584 -O54 -O35 C595 0
-C585 -O45 -O53 C596 0
-C585 -O54 -O35 C596 0
-C586 -O45 -O53 C597 0
-C586 -O54 -O35 C597 0
-C587 -O45 -O53 C598 0
-C587 -O54 -O35 C598 0
-C588 -O45 -O53 C599 0
-C588 -O54 -O35 C599 0
C(5,9,0) 0
C(5,10,0) 0
--C5100 -O55 -O54 C5111 0
--C5101 -O55 -O54 C5112 0
--C5102 -O55 -O54 C5113 0
--C5103 -O55 -O54 C5114 0
--C5104 -O55 -O54 C5115 0
--C5105 -O55 -O54 C5116 0
--C5106 -O55 -O54 C5117 0
--C5107 -O55 -O54 C5118 0
--C5108 -O55 -O54 C5119 0
--C5109 -O55 -O54 C51110 0
--C51010 -O55 -O54 C51111 0
